n_res = 4;
rc = [ 0, 0, 0, 0 ];
n_tasks = 30;
d = [ 9, 3, 1, 7, 7, 4, 3, 9, 1, 2, 2, 6, 1, 3, 6, 6, 9, 4, 3, 10, 6, 3, 4, 8, 1, 6, 7, 4, 3, 1 ];
rr = [| 0, 0, 0, 0, 0, 0, 0, 0, 0, 0, 0, 0, 0, 0, 0, 0, 0, 0, 0, 0, 0, 0, 0, 0, 0, 0, 0, 0, 0, 0
      | 0, 0, 0, 0, 0, 0, 0, 0, 0, 0, 0, 0, 0, 0, 0, 0, 0, 0, 0, 0, 0, 0, 0, 0, 0, 0, 0, 0, 0, 0
      | 0, 0, 0, 0, 0, 0, 0, 0, 0, 0, 0, 0, 0, 0, 0, 0, 0, 0, 0, 0, 0, 0, 0, 0, 0, 0, 0, 0, 0, 0
      | 0, 0, 0, 0, 0, 0, 0, 0, 0, 0, 0, 0, 0, 0, 0, 0, 0, 0, 0, 0, 0, 0, 0, 0, 0, 0, 0, 0, 0, 0 |];
suc = [ { 5, 6, 9 },
       { 5 },
       { 4, 8, 19 },
       { 5, 7, 13 },
       { 10 },
       { 11, 12, 18 },
       { 16 },
       { 11, 26, 29 },
       { 21, 29 },
       { 24 },
       { 25, 27 },
       { 17 },
       { 14, 15 },
       { 24 },
       { 29 },
       { 25 },
       { 20 },
       { 19 },
       { 22, 28 },
       { 21 },
       { 23, 30 },
       { 24 },
       { 25 },
       { 26 },
       { 28 },
       { 27 },
       { 30 },
       {  },
       {  },
       {  } ];
